101
0 13 32 64 86 77 63 60 84 75 
58 6 98 34 45 8 67 99 47 76 
44 79 12 66 93 3 74 30 80 19 
97 2 71 21 55 94 85 88 78 18 
15 57 89 73 35 40 49 14 24 41 
10 25 38 83 95 82 36 46 5 81 
37 23 4 72 9 50 56 59 61 90 
31 54 17 52 7 42 69 39 70 27 
68 28 100 51 43 33 92 53 91 20 
11 1 29 26 87 22 96 65 16 62 
48 
